(declare-const X String)
; ^[A-Za-z]{1}[0-9]{7}$
(assert (str.in.re X (re.++ ((_ re.loop 1 1) (re.union (re.range "A" "Z") (re.range "a" "z"))) ((_ re.loop 7 7) (re.range "0" "9")) (str.to.re "\x0a"))))
; /filename=[^\n]*\x2ejpe/i
(assert (not (str.in.re X (re.++ (str.to.re "/filename=") (re.* (re.comp (str.to.re "\x0a"))) (str.to.re ".jpe/i\x0a")))))
; (\w(\s)?)+
(assert (str.in.re X (re.++ (re.+ (re.++ (re.union (re.range "0" "9") (re.range "A" "Z") (re.range "a" "z") (str.to.re "_")) (re.opt (re.union (str.to.re " ") (str.to.re "\x09") (str.to.re "\x0a") (str.to.re "\x0c") (str.to.re "\x0d"))))) (str.to.re "\x0a"))))
(check-sat)
